(set-logic SLIA)
(constraint (= (f "Launa" "Withers") "Withers Launa"))
(constraint (= (f "Lakenya" "Edison") "Edison Lakenya"))
(constraint (= (f "Brendan" "Hage") "Hage Brendan"))
(constraint (= (f "Bradford" "Lango") "Lango Bradford"))
(constraint (= (f "Rudolf" "Akiyama") "Akiyama Rudolf"))
(constraint (= (f "Lara" "Constable") "Constable Lara"))
(check-synth)
(synth-fun f ((firstname String) (lastname String)) String ((Start String (ntString)) (ntString String ((Str A) (str.++ ntString A))) (A String ((Str ConstString) (SubStr X P P))) (P Int ((Int ntInt) (Pos X Pattern ntInt Direction))) (Pattern String ((Str ConstString) "ProperCase" "CAPS" "lowercase" "Digits" "Alphabets" "Alphanumeric" "WhiteSpace" "ProperCaseWSpaces" "CAPSWSpaces" "lowercaseSpaces" "AlphabetsWSpaces")) (X String (firstname lastname)) (ConstString String (firstname lastname " ")) (Direction Int (0 1)) (ntInt Int (-5 -4 -3 -2 -1 0 1 2 3 4 5))))
